p cnf 31 92
1 2 -3 0
-1 -2 -3 0
1 -2 3 0
-1 2 3 0
-4 -3 0
-4 -1 0
3 1 4 0
5 -6 0
-5 -6 0
-8 7 0
-8 -2 0
-7 2 8 0
-9 6 0
-9 8 0
-6 -8 9 0
-10 -11 -12 0
10 11 -12 0
-10 11 12 0
10 -11 12 0
-13 -9 0
-13 -12 0
9 12 13 0
14 -4 0
14 13 0
4 -13 -14 0
-15 10 0
-15 -5 0
-10 5 15 0
-15 1 -16 0
15 -1 -16 0
-15 -1 16 0
15 1 16 0
-19 1 0
-19 18 0
-1 -18 19 0
17 -19 -20 0
-17 19 -20 0
17 19 20 0
-17 -19 20 0
-21 -16 0
-21 -20 0
16 20 21 0
2 -5 -22 0
-2 5 -22 0
2 5 22 0
-2 -5 22 0
-23 11 0
-23 -11 0
-25 1 0
-25 -24 0
-1 24 25 0
-27 25 0
-27 26 0
-25 -26 27 0
-23 27 -28 0
23 -27 -28 0
-23 -27 28 0
23 27 28 0
-22 -28 -29 0
22 28 -29 0
-22 28 29 0
22 -28 29 0
21 29 -30 0
-21 -29 -30 0
21 -29 30 0
-21 29 30 0
14 30 -31 0
-14 -30 -31 0
14 -30 31 0
-14 30 31 0
-26 -5 25 0
8 23 -26 -11 17 21 0
17 18 0
2 23 -6 29 26 18 0
-22 -19 0
5 24 -13 -31 -29 0
-21 4 0
-8 -18 -11 -19 0
22 9 -25 0
-21 8 29 9 0
-12 2 11 3 -28 0
-29 -3 11 8 -5 17 0
23 12 17 8 0
10 -5 -6 -20 21 23 0
11 6 7 0
5 1 10 -7 0
31 5 -15 19 0
-18 23 -28 -16 -7 0
6 16 0
-24 4 0
25 13 -20 0
31 0
